NAME: toy20_uniform_seed202510280
TYPE: TSP
DIMENSION: 20
EDGE_WEIGHT_TYPE: EUC_2D
NODE_COORD_SECTION
1 41 553
2 624 965
3 579 20
4 908 732
5 930 564
6 315 952
7 738 455
8 642 111
9 216 84
10 575 110
11 125 885
12 312 54
13 715 592
14 26 54
15 99 111
16 437 863
17 840 697
18 476 995
19 414 359
20 480 168
EOF
